c uprop, v00.0, 
c reading from data/prog989.c.cnf
c done reading: 0.003171
p cnf 155 640
-64 -86 0
-64 -80 0
64 80 86 0
-58 80 86 0
-58 -80 -86 0
58 80 -86 0
58 -80 86 0
64 -75 0
-73 -75 0
-64 73 75 0
-64 -68 73 0
64 -68 -73 0
64 68 73 0
-64 68 -73 0
-65 75 0
-62 -65 0
62 65 -75 0
-60 62 -75 0
-60 -62 75 0
60 62 75 0
60 -62 -75 0
-59 65 0
-56 -59 0
56 59 -65 0
56 -65 -82 0
-56 65 -82 0
56 65 82 0
-56 -65 82 0
59 -88 0
-77 -88 0
-59 77 88 0
-59 77 -90 0
59 -77 -90 0
59 77 90 0
-59 -77 90 0
88 -92 0
-70 -92 0
70 -88 92 0
70 -88 -94 0
-70 88 -94 0
70 88 94 0
-70 -88 94 0
92 -95 0
-67 -95 0
67 -92 95 0
67 -92 -97 0
-67 92 -97 0
67 92 97 0
-67 -92 97 0
80 -98 0
86 -98 0
-80 -86 98 0
-80 -86 -99 0
80 86 -99 0
-80 86 99 0
80 -86 99 0
-73 -80 100 0
-73 -98 100 0
-80 -98 100 0
73 80 -100 0
73 98 -100 0
80 98 -100 0
73 -100 -101 0
80 -100 -101 0
98 -100 -101 0
-73 100 101 0
-80 100 101 0
-98 100 101 0
-73 -80 -98 101 0
73 80 98 -101 0
-62 -73 102 0
-62 -100 102 0
-73 -100 102 0
62 73 -102 0
62 100 -102 0
73 100 -102 0
62 -102 -103 0
73 -102 -103 0
100 -102 -103 0
-62 102 103 0
-73 102 103 0
-100 102 103 0
-62 -73 -100 103 0
62 73 100 -103 0
-56 -62 104 0
-56 -102 104 0
-62 -102 104 0
56 62 -104 0
56 102 -104 0
62 102 -104 0
-54 56 -104 0
-54 62 -104 0
-54 102 -104 0
54 -56 104 0
54 -62 104 0
54 -102 104 0
54 -56 -62 -102 0
-54 56 62 102 0
53 -56 -77 0
53 -77 -104 0
53 -56 -104 0
-53 56 77 0
-53 77 104 0
-53 56 104 0
-51 -53 77 0
-51 -53 56 0
-51 -53 104 0
51 53 -77 0
51 53 -56 0
51 53 -104 0
51 -56 -77 -104 0
-51 56 77 104 0
49 -70 -77 0
49 -53 -70 0
49 -53 -77 0
-49 70 77 0
-49 53 70 0
-49 53 77 0
-47 -49 70 0
-47 -49 77 0
-47 -49 53 0
47 49 -70 0
47 49 -77 0
47 49 -53 0
47 -53 -70 -77 0
-47 53 70 77 0
45 -67 -70 0
45 -49 -67 0
45 -49 -70 0
-45 67 70 0
-45 49 67 0
-45 49 70 0
-45 67 -84 0
-45 70 -84 0
-45 49 -84 0
45 -67 84 0
45 -70 84 0
45 -49 84 0
-49 -67 -70 84 0
49 67 70 -84 0
67 -79 0
45 -79 0
-45 -67 79 0
-45 -67 -72 0
45 67 -72 0
45 -67 72 0
-45 67 72 0
-61 103 0
-61 86 0
61 -86 -103 0
-55 -86 -103 0
-55 86 103 0
55 86 -103 0
55 -86 103 0
-54 76 -80 0
-54 -61 76 0
-61 76 -80 0
54 -76 80 0
54 61 -76 0
61 -76 80 0
54 -69 -76 0
-69 -76 80 0
61 -69 -76 0
-54 69 76 0
69 76 -80 0
-61 69 76 0
-54 -61 69 -80 0
54 61 -69 80 0
-51 66 -73 0
-51 66 -76 0
66 -73 -76 0
51 -66 73 0
51 -66 76 0
-66 73 76 0
-44 51 -66 0
-44 -66 73 0
-44 -66 76 0
44 -51 66 0
44 66 -73 0
44 66 -76 0
44 -51 -73 -76 0
-44 51 73 76 0
43 -47 -62 0
43 -47 -66 0
43 -62 -66 0
-43 47 62 0
-43 47 66 0
-43 62 66 0
-42 -43 47 0
-42 -43 62 0
-42 -43 66 0
42 43 -47 0
42 43 -62 0
42 43 -66 0
42 -47 -62 -66 0
-42 47 62 66 0
41 -56 -84 0
41 -43 -84 0
41 -43 -56 0
-41 56 84 0
-41 43 84 0
-41 43 56 0
-40 -41 84 0
-40 -41 56 0
-40 -41 43 0
40 41 -84 0
40 41 -56 0
40 41 -43 0
40 -43 -56 -84 0
-40 43 56 84 0
39 -72 -77 0
39 -41 -72 0
39 -41 -77 0
-39 72 77 0
-39 41 72 0
-39 41 77 0
-38 -39 72 0
-38 -39 77 0
-38 -39 41 0
38 39 -72 0
38 39 -77 0
38 39 -41 0
38 -41 -72 -77 0
-38 41 72 77 0
37 -70 -79 0
37 -39 -79 0
37 -39 -70 0
-37 70 79 0
-37 39 79 0
-37 39 70 0
-36 -37 79 0
-36 -37 70 0
-36 -37 39 0
36 37 -79 0
36 37 -70 0
36 37 -39 0
36 -39 -70 -79 0
-36 39 70 79 0
-35 67 0
-35 37 0
35 -37 -67 0
-34 -37 -67 0
-34 37 67 0
34 37 -67 0
34 -37 67 0
-33 44 0
-33 86 0
33 -44 -86 0
-32 -44 -86 0
-32 44 86 0
32 -44 86 0
32 44 -86 0
31 -42 -80 0
31 -33 -42 0
31 -33 -80 0
-31 42 80 0
-31 33 42 0
-31 33 80 0
-30 -31 42 0
-30 -31 80 0
-30 -31 33 0
30 31 -42 0
30 31 -80 0
30 31 -33 0
30 -33 -42 -80 0
-30 33 42 80 0
29 -40 -73 0
29 -31 -40 0
29 -31 -73 0
-29 40 73 0
-29 31 40 0
-29 31 73 0
-29 40 -105 0
-29 73 -105 0
-29 31 -105 0
29 -40 105 0
29 -73 105 0
29 -31 105 0
-31 -40 -73 105 0
31 40 73 -105 0
-38 -62 106 0
-29 -38 106 0
-29 -62 106 0
38 62 -106 0
29 38 -106 0
29 62 -106 0
-38 106 0
-62 106 0
-29 106 0
-29 -38 -62 0
-36 -56 107 0
-36 -106 107 0
-56 -106 107 0
36 56 -107 0
36 106 -107 0
56 106 -107 0
-36 107 0
-56 107 0
-106 107 0
-36 -56 -106 0
-34 -77 108 0
-34 -107 108 0
-77 -107 108 0
34 77 -108 0
34 107 -108 0
77 107 -108 0
-34 108 0
-77 108 0
-107 108 0
-34 -77 -107 0
-35 -70 109 0
-35 -108 109 0
-70 -108 109 0
35 70 -109 0
35 108 -109 0
70 108 -109 0
-35 109 0
-70 109 0
-108 109 0
-35 -70 -108 0
-67 -109 0
-67 109 0
67 -109 0
-86 -110 0
-99 -110 0
86 99 110 0
86 99 -111 0
-86 -99 -111 0
-86 99 111 0
86 -99 111 0
110 -112 0
-101 -112 0
101 -110 112 0
101 -110 -113 0
-101 110 -113 0
101 110 113 0
-101 -110 113 0
112 -114 0
-55 -114 0
55 -112 114 0
55 -112 -115 0
-55 112 -115 0
55 112 115 0
-55 -112 115 0
114 -116 0
-69 -116 0
69 -114 116 0
69 -114 -117 0
-69 114 -117 0
69 114 117 0
-69 -114 117 0
116 -118 0
-32 -118 0
32 -116 118 0
32 -116 -119 0
-32 116 -119 0
32 116 119 0
-32 -116 119 0
118 -120 0
-30 -120 0
30 -118 120 0
30 -118 -121 0
-30 118 -121 0
30 118 121 0
-30 -118 121 0
120 -122 0
-105 -122 0
105 -120 122 0
105 -120 -123 0
-105 120 -123 0
105 120 123 0
-105 -120 123 0
122 -124 0
-122 124 0
-122 -125 0
122 125 0
124 -126 0
-124 126 0
-124 -127 0
124 127 0
126 -128 0
-126 128 0
-126 -129 0
126 129 0
128 -130 0
-128 130 0
-128 -131 0
128 131 0
130 -132 0
-130 132 0
-130 -133 0
130 133 0
132 -134 0
-132 134 0
-132 -135 0
132 135 0
-136 -138 0
-138 -139 0
136 138 139 0
136 139 -140 0
-136 -139 -140 0
-136 139 140 0
136 -139 140 0
138 -141 0
-141 -142 0
-138 141 142 0
-138 142 -144 0
138 -142 -144 0
138 142 144 0
-138 -142 144 0
141 -145 0
-141 145 0
-141 -146 0
141 146 0
145 -147 0
-145 147 0
-87 -145 0
87 145 0
-81 147 0
81 -147 0
-74 -147 0
74 147 0
-63 81 0
63 -81 0
-57 -81 0
57 81 0
63 -78 0
-63 78 0
-63 -71 0
63 71 0
136 -137 0
-136 137 0
-139 143 0
139 -143 0
-142 148 0
142 -148 0
143 -149 0
136 -149 0
-136 -143 149 0
-136 -143 -150 0
136 143 -150 0
136 -143 150 0
-136 143 150 0
-139 -148 151 0
-148 -149 151 0
-139 -149 151 0
139 148 -151 0
148 149 -151 0
139 149 -151 0
148 -151 -152 0
139 -151 -152 0
149 -151 -152 0
-148 151 152 0
-139 151 152 0
-149 151 152 0
-139 -148 -149 152 0
139 148 149 -152 0
-142 -151 153 0
142 -153 0
151 -153 0
142 151 -153 0
-153 -154 0
142 -153 -154 0
151 -153 -154 0
-142 153 154 0
-151 153 154 0
142 151 -154 0
-153 155 0
153 -155 0
-83 152 0
-83 136 0
83 -136 -152 0
-89 -136 -152 0
-89 136 152 0
89 136 -152 0
89 -136 152 0
91 -139 -154 0
-83 91 -154 0
-83 91 -139 0
-91 139 154 0
83 -91 154 0
83 -91 139 0
-91 -93 154 0
-91 -93 139 0
83 -91 -93 0
91 93 -154 0
91 93 -139 0
-83 91 93 0
-83 93 -139 -154 0
83 -93 139 154 0
-142 -155 0
-91 -155 0
-91 -142 0
96 -155 0
96 -142 0
-91 96 0
-91 96 -142 -155 0
91 -96 142 155 0
-52 -136 0
-52 -139 0
52 136 139 0
-50 136 139 0
-50 -136 -139 0
50 -136 139 0
50 136 -139 0
-48 52 0
-48 -142 0
48 -52 142 0
-46 -52 142 0
-46 52 -142 0
46 52 142 0
46 -52 -142 0
48 -85 0
-85 -137 0
-48 85 137 0
-28 -48 137 0
-28 48 -137 0
28 48 137 0
28 -48 -137 0
-27 85 0
-27 -150 0
27 -85 150 0
-26 -85 150 0
-26 85 -150 0
26 85 150 0
26 -85 -150 0
-25 27 0
-25 -89 0
25 -27 89 0
-24 -27 89 0
-24 27 -89 0
24 27 89 0
24 -27 -89 0
-23 25 0
-23 -93 0
23 -25 93 0
-22 -25 93 0
-22 25 -93 0
22 25 93 0
22 -25 -93 0
-21 23 0
-21 -96 0
21 -23 96 0
-20 -23 96 0
-20 23 -96 0
20 23 96 0
20 -23 -96 0
-19 21 0
19 -21 0
-18 -21 0
18 21 0
-17 19 0
17 -19 0
-16 -19 0
16 19 0
-15 17 0
15 -17 0
-14 -17 0
14 17 0
-13 15 0
13 -15 0
-12 -15 0
12 15 0
-11 13 0
11 -13 0
-10 -13 0
10 13 0
-9 11 0
9 -11 0
-8 -11 0
8 11 0
-7 86 0
-7 136 0
7 -86 -136 0
-86 136 0
86 -136 0
6 -99 -139 0
6 -7 -99 0
6 -7 -139 0
-6 99 139 0
-6 7 99 0
-6 7 139 0
6 -99 0
6 -139 0
6 -7 0
-7 -99 -139 0
5 -101 -142 0
5 -6 -101 0
5 -6 -142 0
-5 101 142 0
-5 6 101 0
-5 6 142 0
-5 101 0
-5 142 0
-5 6 0
6 101 142 0
4 -55 -137 0
4 -5 -55 0
4 -5 -137 0
-4 55 137 0
-4 5 55 0
-4 5 137 0
4 -55 0
4 -137 0
4 -5 0
-5 -55 -137 0
3 -69 -150 0
3 -4 -69 0
3 -4 -150 0
-3 69 150 0
-3 4 69 0
-3 4 150 0
-3 69 0
-3 150 0
-3 4 0
4 69 150 0
2 -32 -89 0
2 -3 -32 0
2 -3 -89 0
-2 32 89 0
-2 3 32 0
-2 3 89 0
2 -32 0
2 -89 0
2 -3 0
-3 -32 -89 0
1 -30 -93 0
1 -2 -30 0
1 -2 -93 0
-1 30 93 0
-1 2 30 0
-1 2 93 0
1 -30 0
1 -93 0
1 -2 0
-2 -30 -93 0
-96 -105 0
-1 -105 0
-1 -96 0
1 96 105 0
